decision_x1=[0,4];
decision_x2=[0,4];
decision_x3=[0,4];
decision_x4=[0,4];
random_y1=[0,4];
random_y2=[0,4];
constraint_x3_x1=[
0,1,7.7|
0,2,2.4|
0,3,8|
0,4,2.3|
1,0,9.4|
1,2,7.4|
1,3,5.3|
1,4,9|
2,0,6.7|
2,1,7.9|
2,3,1.9|
2,4,7.7|
3,0,2.5|
3,1,3|
3,2,3.7|
3,4,4.2|
4,0,2.3|
4,1,9.4|
4,2,2.4|
4,3,4.1|
];
constraint_x3_x2=[
0,1,9.7|
0,2,6.6|
0,3,0.1|
0,4,3.3|
1,0,3.2|
1,2,2.8|
1,3,5.8|
1,4,8|
2,0,8.3|
2,1,9|
2,3,1.9|
2,4,3.3|
3,0,8.4|
3,1,8.5|
3,2,4|
3,4,2.1|
4,0,9.6|
4,1,9.1|
4,2,1.8|
4,3,8.4|
];
constraint_x4_x2=[
0,1,6|
0,2,0.71|
0,3,8.5|
0,4,4|
1,0,3.3|
1,2,0.7|
1,3,9.8|
1,4,8|
2,0,1.2|
2,1,9.3|
2,3,5.9|
2,4,7.6|
3,0,9.3|
3,1,4.7|
3,2,9.2|
3,4,9.2|
4,0,1.7|
4,1,7.5|
4,2,4.2|
4,3,8.8|
];
constraint_x1_y1=[
0,0,7.4|
0,1,3|
0,2,7|
0,3,0.51|
0,4,1.4|
1,0,4.2|
1,1,1.3|
1,2,7.2|
1,3,1.5|
1,4,2.5|
2,0,6|
2,1,3.1|
2,2,1.7|
2,3,4.4|
2,4,7.6|
3,0,0.49|
3,1,9.1|
3,2,1.6|
3,3,8.4|
3,4,2.1|
4,0,3.4|
4,1,9.8|
4,2,5.2|
4,3,3.5|
4,4,3.3|
];
constraint_x2_y2=[
0,0,6.3|
0,1,8.7|
0,2,3.8|
0,3,8.2|
0,4,2.1|
1,0,9.2|
1,1,6.9|
1,2,0.55|
1,3,2.8|
1,4,1.9|
2,0,7.1|
2,1,0.65|
2,2,3.3|
2,3,7.7|
2,4,3.9|
3,0,4|
3,1,5|
3,2,7|
3,3,0.26|
3,4,6.5|
4,0,0.57|
4,1,8.6|
4,2,7.5|
4,3,7.8|
4,4,1.7|
];
initial_distribution_y1=[0.022,0.095,0.45,0.29,0.14];
initial_distribution_y2=[0.41,0.012,0.16,0.03,0.39];
transition_y1=[
0.1,0.28,0.18,0.12,0.32|
0.037,0.34,0.16,0.32,0.15|
0.11,0.3,0.16,0.27,0.17|
0.11,0.097,0.34,0.19,0.26|
0.18,0.082,0.15,0.14,0.45|
];
transition_y2=[
0.11,0.28,0.34,0.21,0.056|
0.0071,0.36,0.095,0.3,0.23|
0.33,0.33,0.077,0.19,0.07|
0.26,0.37,0.28,0.054,0.041|
0.39,0.3,0.0058,0.097,0.21|
];
